p tdp 16 46
1 2
1 3
1 4
1 5
1 10
1 11
1 12
1 15
1 16
2 3
2 5
2 6
2 7
2 12
2 13
3 7
3 13
3 15
3 16
4 5
4 6
4 7
4 10
4 14
5 9
5 12
5 13
5 14
5 15
6 10
6 11
6 12
6 13
6 15
7 8
7 11
7 14
7 16
8 11
8 15
9 15
10 15
11 13
13 14
13 15
14 16
